% demand
num_movements = 24;
loading_factor = [1550, 1000, 1950, 1550, 950, 1950, 1500, 1200, 1400, 1000, 1650, 1750, 1900, 1850, 1100, 1200, 1900, 1050, 1500, 1000, 1550, 1450, 1400, 1600];
pickup_time = [0, 1, 1, 1, 1, 3, 4, 4, 4, 5, 5, 5, 5, 6, 6, 6, 6, 7, 7, 9, 9, 9, 9, 9];
delivery_time = [3, 4, 4, 5, 3, 4, 5, 5, 5, 6, 6, 6, 6, 7, 7, 8, 9, 8, 8, 11, 10, 11, 10, 11];

% transporter definition
total_capacity = 7000;
num_decks = 3;
capacity = [3000, 1000, 3000];

% ways out of decks
num_ways_out = 1;
paths_out = array3d(decks, ways_out, decks, [
% ways out of deck d1
2, 3, 0, 

% ways out of deck d2
3, 0, 0, 

% ways out of deck d3
0, 0, 0,	

]);

